# This is an example VASP density of states INCAR file. Be sure to read a CHGCAR file from a well converged k-point calculation. 

DFT-D3 Correction
IVDW   =  11           (DFT-D3 method of method with no damping)

Global Parameters
ISTART =  1            (Read existing wavefunction, if there)
ISPIN  =  1            (Non-Spin polarised DFT)
ICHARG =  11         (Non-self-consistent: GGA/LDA band structures)
LREAL  = .FALSE.       (Projection operators: automatic)
ENCUT  =  680        (Cut-off energy for plane wave basis set, in eV)
PREC   =  Accurate   (Precision level: Normal or Accurate, set Accurate when perform structure lattice relaxation calculation)
LWAVE  = .FALSE.        (Write WAVECAR or not)
LCHARG = .FALSE.        (Write CHGCAR or not)
ADDGRID= .TRUE.        (Increase grid, helps GGA convergence)
NPAR = 4

Electronic Relaxation
ISMEAR =  -5            (Gaussian smearing, metals:1)
SIGMA  =  0.05         (Smearing value in eV, metals:0.2)
EDIFF  =  1E-05        (SCF energy convergence, in eV)

Ionic Relaxation
IBRION =  -1            (Algorithm: 0-MD, 1-Quasi-New, 2-CG)
NSW = 0

ALGO = Fast
POTIM = 0.01
LORBIT = 11
NEDOS = 2000